max: X_SOURCE_x1 + X_SOURCE_x2 + X_SOURCE_x3 + X_SOURCE_x4 + X_SOURCE_x5 + X_SOURCE_x6 + X_SOURCE_x7;

X_SOURCE_x1 = X_x1_x2;
X_SOURCE_x1 = X_x1_x3;
X_SOURCE_x1 = X_x1_x4;
X_SOURCE_x1 = X_x1_x5;
X_SOURCE_x1 = X_x1_x6;
X_SOURCE_x1 = X_x1_x7;
X_SOURCE_x2 = X_x2_x1;
X_SOURCE_x2 = X_x2_x3;
X_SOURCE_x2 = X_x2_x4;
X_SOURCE_x2 = X_x2_x5;
X_SOURCE_x2 = X_x2_x6;
X_SOURCE_x2 = X_x2_x7;
X_SOURCE_x3 = X_x3_x1;
X_SOURCE_x3 = X_x3_x2;
X_SOURCE_x3 = X_x3_x4;
X_SOURCE_x3 = X_x3_x5;
X_SOURCE_x3 = X_x3_x6;
X_SOURCE_x3 = X_x3_x7;
X_SOURCE_x4 = X_x4_x1;
X_SOURCE_x4 = X_x4_x2;
X_SOURCE_x4 = X_x4_x3;
X_SOURCE_x4 = X_x4_x5;
X_SOURCE_x4 = X_x4_x6;
X_SOURCE_x4 = X_x4_x7;
X_SOURCE_x5 = X_x5_x1;
X_SOURCE_x5 = X_x5_x2;
X_SOURCE_x5 = X_x5_x3;
X_SOURCE_x5 = X_x5_x4;
X_SOURCE_x5 = X_x5_x6;
X_SOURCE_x5 = X_x5_x7;
X_SOURCE_x6 = X_x6_x1;
X_SOURCE_x6 = X_x6_x2;
X_SOURCE_x6 = X_x6_x3;
X_SOURCE_x6 = X_x6_x4;
X_SOURCE_x6 = X_x6_x5;
X_SOURCE_x6 = X_x6_x7;
X_SOURCE_x7 = X_x7_x1;
X_SOURCE_x7 = X_x7_x2;
X_SOURCE_x7 = X_x7_x3;
X_SOURCE_x7 = X_x7_x4;
X_SOURCE_x7 = X_x7_x5;
X_SOURCE_x7 = X_x7_x6;
X_x1_DISTANT = X_x1_x2;
X_x1_DISTANT = X_x1_x3;
X_x1_DISTANT = X_x1_x4;
X_x1_DISTANT = X_x1_x5;
X_x1_DISTANT = X_x1_x6;
X_x1_DISTANT = X_x1_x7;
X_x2_DISTANT = X_x2_x1;
X_x2_DISTANT = X_x2_x3;
X_x2_DISTANT = X_x2_x4;
X_x2_DISTANT = X_x2_x5;
X_x2_DISTANT = X_x2_x6;
X_x2_DISTANT = X_x2_x7;
X_x3_DISTANT = X_x3_x1;
X_x3_DISTANT = X_x3_x2;
X_x3_DISTANT = X_x3_x4;
X_x3_DISTANT = X_x3_x5;
X_x3_DISTANT = X_x3_x6;
X_x3_DISTANT = X_x3_x7;
X_x4_DISTANT = X_x4_x1;
X_x4_DISTANT = X_x4_x2;
X_x4_DISTANT = X_x4_x3;
X_x4_DISTANT = X_x4_x5;
X_x4_DISTANT = X_x4_x6;
X_x4_DISTANT = X_x4_x7;
X_x5_DISTANT = X_x5_x1;
X_x5_DISTANT = X_x5_x2;
X_x5_DISTANT = X_x5_x3;
X_x5_DISTANT = X_x5_x4;
X_x5_DISTANT = X_x5_x6;
X_x5_DISTANT = X_x5_x7;
X_x6_DISTANT = X_x6_x1;
X_x6_DISTANT = X_x6_x2;
X_x6_DISTANT = X_x6_x3;
X_x6_DISTANT = X_x6_x4;
X_x6_DISTANT = X_x6_x5;
X_x6_DISTANT = X_x6_x7;
X_x7_DISTANT = X_x7_x1;
X_x7_DISTANT = X_x7_x2;
X_x7_DISTANT = X_x7_x3;
X_x7_DISTANT = X_x7_x4;
X_x7_DISTANT = X_x7_x5;
X_x7_DISTANT = X_x7_x6;
X_x1_x2 <= 3;
X_x1_x3 <= 8;
X_x1_x4 <= 2;
X_x1_x5 <= 7;
X_x1_x6 <= 5;
X_x1_x7 <= 1;
X_x2_x1 <= 9;
X_x2_x3 <= 9;
X_x2_x4 <= 6;
X_x2_x5 <= 3;
X_x2_x6 <= 10;
X_x2_x7 <= 3;
X_x3_x1 <= 6;
X_x3_x2 <= 6;
X_x3_x4 <= 8;
X_x3_x5 <= 10;
X_x3_x6 <= 3;
X_x3_x7 <= 3;
X_x4_x1 <= 2;
X_x4_x2 <= 9;
X_x4_x3 <= 7;
X_x4_x5 <= 1;
X_x4_x6 <= 1;
X_x4_x7 <= 9;
X_x5_x1 <= 1;
X_x5_x2 <= 4;
X_x5_x3 <= 8;
X_x5_x4 <= 7;
X_x5_x6 <= 10;
X_x5_x7 <= 2;
X_x6_x1 <= 9;
X_x6_x2 <= 6;
X_x6_x3 <= 9;
X_x6_x4 <= 10;
X_x6_x5 <= 1;
X_x6_x7 <= 5;
X_x7_x1 <= 9;
X_x7_x2 <= 8;
X_x7_x3 <= 4;
X_x7_x4 <= 7;
X_x7_x5 <= 8;
X_x7_x6 <= 10;
